presolving:
   (0.2s) running MILP presolver
   (0.2s) MILP presolver found nothing
(round 1, exhaustive) 0 del vars, 0 del conss, 0 add conss, 0 chg bounds, 0 chg sides, 0 chg coeffs, 4695 upgd conss, 0 impls, 4634 clqs
   (0.5s) sparsify finished: 4/27178 (0.0%) nonzeros canceled - in total 4 canceled nonzeros, 60 changed coefficients, 0 added nonzeros
   (3.5s) probing: 1000/4560 (21.9%) - 2 fixings, 0 aggregations, 148130 implications, 0 bound changes
   (3.6s) probing: 1044/4560 (22.9%) - 2 fixings, 0 aggregations, 149053 implications, 0 bound changes
   (3.6s) probing aborted: 1000/1000 successive useless probings
   (3.6s) symmetry computation started: requiring (bin +, int -, cont +), (fixed: bin -, int +, cont -)
   (3.7s) no symmetry present
presolving (2 rounds: 2 fast, 2 medium, 2 exhaustive):
 2 deleted vars, 0 deleted constraints, 0 added constraints, 0 tightened bounds, 0 added holes, 0 changed sides, 60 changed coefficients
 0 implications, 24832 cliques
presolved problem has 4558 variables (4558 bin, 0 int, 0 impl, 0 cont) and 4770 constraints
     60 constraints of type <knapsack>
   4634 constraints of type <setppc>
     76 constraints of type <linear>
Presolving Time: 3.63

 time | node  | left  |LP iter|LP it/n|mem/heur|mdpt |vars |cons |rows |cuts |sepa|confs|strbr|  dualbound   | primalbound  |  gap   | compl. 
p 3.8s|     1 |     0 |     0 |     - |  clique|   0 |4558 |4618 |4618 |   0 |  0 |   0 |   0 | 4.665500e+04 | 2.063328e+06 |4322.52%| unknown
  7.3s|     1 |     0 |  7853 |     - |    76M |   0 |4558 |4572 |4618 |   0 |  0 |  33 |   0 | 8.766615e+04 | 2.063328e+06 |2253.62%| unknown
r 7.3s|     1 |     0 |  7853 |     - |rounding|   0 |4558 |4574 |4618 |   0 |  0 |  35 |   0 | 8.766615e+04 | 1.258455e+06 |1335.51%| unknown
  8.1s|     1 |     0 |  8307 |     - |    77M |   0 |4558 |4574 |4620 |   2 |  1 |  35 |   0 | 8.769492e+04 | 1.258455e+06 |1335.04%| unknown
  8.1s|     1 |     0 |  8307 |     - |    78M |   0 |4558 |4574 |4542 |   2 |  1 |  35 |   0 | 8.769492e+04 | 1.258455e+06 |1335.04%| unknown
  9.0s|     1 |     0 |  8742 |     - |    78M |   0 |4558 |4573 |3826 |   7 |  2 |  35 |   0 | 8.775924e+04 | 1.258455e+06 |1333.99%| unknown
r 9.0s|     1 |     0 |  8742 |     - |shifting|   0 |4558 |4573 |3826 |   7 |  2 |  35 |   0 | 8.775924e+04 | 1.258305e+06 |1333.81%| unknown
  9.9s|     1 |     0 |  9226 |     - |    78M |   0 |4558 |3852 |3835 |  16 |  3 |  35 |   0 | 8.781328e+04 | 1.258305e+06 |1332.93%| unknown
r 9.9s|     1 |     0 |  9226 |     - |shifting|   0 |4558 |3854 |3835 |  16 |  3 |  37 |   0 | 8.781328e+04 | 1.258207e+06 |1332.82%| unknown
 10.7s|     1 |     0 |  9351 |     - |    79M |   0 |4558 |3854 |3836 |  17 |  4 |  37 |   0 | 8.782459e+04 | 1.258207e+06 |1332.64%| unknown
 11.8s|     1 |     0 |  9881 |     - |    79M |   0 |4558 |3854 |3841 |  22 |  5 |  37 |   0 | 8.785361e+04 | 1.258207e+06 |1332.16%| unknown
 12.3s|     1 |     0 | 10030 |     - |    80M |   0 |4558 |3855 |3843 |  24 |  6 |  38 |   0 | 8.786901e+04 | 1.258207e+06 |1331.91%| unknown
 12.8s|     1 |     0 | 10400 |     - |    81M |   0 |4558 |3855 |3847 |  28 |  7 |  38 |   0 | 8.789797e+04 | 1.258207e+06 |1331.44%| unknown
 13.7s|     1 |     0 | 10711 |     - |    81M |   0 |4558 |3865 |3851 |  32 |  8 |  48 |   0 | 8.793214e+04 | 1.258207e+06 |1330.88%| unknown
 14.6s|     1 |     0 | 11273 |     - |    82M |   0 |4558 |3875 |3854 |  35 |  9 |  58 |   0 | 8.796741e+04 | 1.258207e+06 |1330.31%| unknown
 time | node  | left  |LP iter|LP it/n|mem/heur|mdpt |vars |cons |rows |cuts |sepa|confs|strbr|  dualbound   | primalbound  |  gap   | compl. 
 15.6s|     1 |     0 | 12354 |     - |    82M |   0 |4558 |3875 |3861 |  42 | 10 |  58 |   0 | 8.803427e+04 | 1.258207e+06 |1329.22%| unknown
 16.1s|     1 |     0 | 12748 |     - |    84M |   0 |4558 |3875 |3866 |  47 | 11 |  58 |   0 | 8.808238e+04 | 1.258207e+06 |1328.44%| unknown
 16.8s|     1 |     0 | 13172 |     - |    85M |   0 |4558 |3875 |3869 |  50 | 12 |  58 |   0 | 8.811888e+04 | 1.258207e+06 |1327.85%| unknown
 17.7s|     1 |     0 | 14312 |     - |    88M |   0 |4558 |3875 |3875 |  56 | 13 |  58 |   0 | 8.832506e+04 | 1.258207e+06 |1324.52%| unknown
 18.5s|     1 |     0 | 15113 |     - |    89M |   0 |4558 |3885 |3883 |  64 | 14 |  68 |   0 | 8.848657e+04 | 1.258207e+06 |1321.92%| unknown
 19.4s|     1 |     0 | 16239 |     - |    90M |   0 |4558 |3885 |3903 |  84 | 15 |  68 |   0 | 8.864017e+04 | 1.258207e+06 |1319.46%| unknown
 20.2s|     1 |     0 | 16782 |     - |    91M |   0 |4558 |3885 |3914 |  95 | 16 |  68 |   0 | 8.869842e+04 | 1.258207e+06 |1318.52%| unknown
 20.9s|     1 |     0 | 17789 |     - |    91M |   0 |4558 |3885 |3924 | 105 | 17 |  68 |   0 | 8.875483e+04 | 1.258207e+06 |1317.62%| unknown
 21.3s|     1 |     0 | 18098 |     - |    92M |   0 |4558 |3885 |3931 | 112 | 18 |  68 |   0 | 8.879464e+04 | 1.258207e+06 |1316.99%| unknown
 21.9s|     1 |     0 | 18570 |     - |    92M |   0 |4558 |3886 |3940 | 121 | 19 |  69 |   0 | 8.882901e+04 | 1.258207e+06 |1316.44%| unknown
r21.9s|     1 |     0 | 18570 |     - |shifting|   0 |4558 |3886 |3940 | 121 | 19 |  69 |   0 | 8.882901e+04 | 1.258182e+06 |1316.41%| unknown
 22.5s|     1 |     0 | 19478 |     - |    93M |   0 |4558 |3886 |3948 | 129 | 20 |  69 |   0 | 8.890246e+04 | 1.258182e+06 |1315.24%| unknown
 22.8s|     1 |     0 | 19645 |     - |    93M |   0 |4558 |3886 |3953 | 134 | 21 |  69 |   0 | 8.892626e+04 | 1.258182e+06 |1314.86%| unknown
 23.3s|     1 |     0 | 19757 |     - |    93M |   0 |4558 |3886 |3957 | 138 | 22 |  69 |   0 | 8.893974e+04 | 1.258182e+06 |1314.65%| unknown
 23.7s|     1 |     0 | 19849 |     - |    93M |   0 |4558 |3896 |3962 | 143 | 23 |  79 |   0 | 8.894675e+04 | 1.258182e+06 |1314.53%| unknown
 time | node  | left  |LP iter|LP it/n|mem/heur|mdpt |vars |cons |rows |cuts |sepa|confs|strbr|  dualbound   | primalbound  |  gap   | compl. 
 24.1s|     1 |     0 | 19963 |     - |    93M |   0 |4558 |3894 |3967 | 148 | 24 |  79 |   0 | 8.895753e+04 | 1.258182e+06 |1314.36%| unknown
 24.5s|     1 |     0 | 20091 |     - |    93M |   0 |4558 |3894 |3972 | 153 | 25 |  79 |   0 | 8.897743e+04 | 1.258182e+06 |1314.05%| unknown
 25.1s|     1 |     0 | 20276 |     - |    93M |   0 |4558 |3892 |3976 | 157 | 26 |  79 |   0 | 8.899683e+04 | 1.258182e+06 |1313.74%| unknown
r25.1s|     1 |     0 | 20276 |     - |rounding|   0 |4558 |3892 |3976 | 157 | 26 |  79 |   0 | 8.899683e+04 | 5.507056e+05 | 518.79%| unknown
 25.3s|     1 |     0 | 20471 |     - |    93M |   0 |4558 |3890 |3980 | 161 | 27 |  79 |   0 | 8.903596e+04 | 5.507056e+05 | 518.52%| unknown
 25.3s|     1 |     0 | 20471 |     - |    93M |   0 |4558 |3890 |3565 | 161 | 27 |  79 |   0 | 8.903596e+04 | 5.507056e+05 | 518.52%| unknown
 25.6s|     1 |     0 | 20841 |     - |    93M |   0 |4558 |3477 |2669 | 170 | 28 |  79 |   0 | 8.907607e+04 | 5.507056e+05 | 518.24%| unknown
r25.7s|     1 |     0 | 20841 |     - |rounding|   0 |4558 |3477 |2669 | 170 | 28 |  79 |   0 | 8.907607e+04 | 5.506635e+05 | 518.19%| unknown
 25.8s|     1 |     0 | 20873 |     - |    93M |   0 |4558 |2566 |2673 | 176 | 29 |  79 |   0 | 8.923582e+04 | 5.506635e+05 | 517.09%| unknown
 26.0s|     1 |     0 | 20896 |     - |    93M |   0 |4558 |2566 |2676 | 179 | 30 |  79 |   0 | 8.935761e+04 | 5.506635e+05 | 516.25%| unknown
 26.1s|     1 |     0 | 20936 |     - |    93M |   0 |4558 |2567 |2679 | 182 | 31 |  80 |   0 | 8.945679e+04 | 5.506635e+05 | 515.56%| unknown
 26.3s|     1 |     0 | 20962 |     - |    95M |   0 |4558 |2565 |2683 | 186 | 32 |  80 |   0 | 8.967063e+04 | 5.506635e+05 | 514.10%| unknown
 26.6s|     1 |     0 | 21117 |     - |    95M |   0 |4558 |2565 |2687 | 190 | 33 |  80 |   0 | 9.012788e+04 | 5.506635e+05 | 510.98%| unknown
r26.6s|     1 |     0 | 21117 |     - |rounding|   0 |4558 |2565 |2687 | 190 | 33 |  80 |   0 | 9.012788e+04 | 5.304439e+05 | 488.55%| unknown
 26.8s|     1 |     0 | 21279 |     - |    95M |   0 |4558 |2565 |2694 | 197 | 34 |  80 |   0 | 9.055855e+04 | 5.304439e+05 | 485.75%| unknown
 time | node  | left  |LP iter|LP it/n|mem/heur|mdpt |vars |cons |rows |cuts |sepa|confs|strbr|  dualbound   | primalbound  |  gap   | compl. 
 26.9s|     1 |     0 | 21314 |     - |    95M |   0 |4558 |2565 |2700 | 205 | 35 |  80 |   0 | 9.094092e+04 | 5.304439e+05 | 483.28%| unknown
 27.0s|     1 |     0 | 21345 |     - |    95M |   0 |4558 |2567 |2706 | 211 | 36 |  82 |   0 | 9.142041e+04 | 5.304439e+05 | 480.22%| unknown
r27.0s|     1 |     0 | 21345 |     - |rounding|   0 |4558 |2568 |2706 | 211 | 36 |  83 |   0 | 9.142041e+04 | 5.304391e+05 | 480.22%| unknown
r27.0s|     1 |     0 | 21345 |     - |shifting|   0 |4558 |2568 |2706 | 211 | 36 |  83 |   0 | 9.142041e+04 | 5.303865e+05 | 480.16%| unknown
 27.1s|     1 |     0 | 21362 |     - |    95M |   0 |4558 |2568 |2712 | 217 | 37 |  83 |   0 | 9.170015e+04 | 5.303865e+05 | 478.39%| unknown
 27.2s|     1 |     0 | 21372 |     - |    95M |   0 |4558 |2568 |2714 | 219 | 38 |  83 |   0 | 9.170022e+04 | 5.303865e+05 | 478.39%| unknown
 27.3s|     1 |     0 | 21379 |     - |    95M |   0 |4558 |2568 |2719 | 224 | 40 |  83 |   0 | 9.170038e+04 | 5.303865e+05 | 478.39%| unknown
 27.5s|     1 |     0 | 21385 |     - |    95M |   0 |4558 |2568 |2725 | 230 | 41 |  83 |   0 | 9.170050e+04 | 5.303865e+05 | 478.39%| unknown
 27.6s|     1 |     0 | 21386 |     - |    95M |   0 |4558 |2568 |2683 | 231 | 42 |  83 |   0 | 9.170053e+04 | 5.303865e+05 | 478.39%| unknown
 27.8s|     1 |     0 | 21394 |     - |    95M |   0 |4558 |2568 |2687 | 235 | 44 |  83 |   0 | 9.170059e+04 | 5.303865e+05 | 478.39%| unknown
 27.9s|     1 |     0 | 21406 |     - |    95M |   0 |4558 |2568 |2689 | 237 | 46 |  83 |   0 | 9.170097e+04 | 5.303865e+05 | 478.39%| unknown
 28.2s|     1 |     0 | 21412 |     - |    95M |   0 |4558 |2568 |2691 | 239 | 47 |  83 |   0 | 9.170105e+04 | 5.303865e+05 | 478.39%| unknown
d28.5s|     1 |     0 | 22557 |     - |conflict|   0 |4558 |1682 |2691 |   0 | 47 |  85 |   0 | 1.657650e+05 | 1.657650e+05 |   0.00%| unknown
 28.5s|     1 |     0 | 22557 |     - |    95M |   0 |4558 |1682 |2691 | 239 | 47 |  85 |   0 | 1.657650e+05 | 1.657650e+05 |   0.00%| unknown

SCIP Status        : problem is solved [optimal solution found]
Solving Time (sec) : 28.48
Solving Nodes      : 1
Primal Bound       : +1.65765048768992e+05 (41 solutions)
Dual Bound         : +1.65765048768992e+05
Gap                : 0.00 %
Solve Status: optimal
Solve Time: 28.49 seconds
Objective Value: 165765.05
